config:eval_tsp="2022-12-09 08:40:37"
config:arch=arch5
config:num_train_worker=3
config:num_sample_worker=1
config:sample_type=khop2
config:root_path=/nvme/graph-learning-copy/samgraph/
config:dataset=mag240m-homo
config:pipeline=False
config:cache_policy=coll_cache_asymm_link
config:cache_percentage=0.02
config:num_epoch=4
config:batch_size=1000
config:num_hidden=256
config:max_sampling_jobs=1
config:max_copying_jobs=1
config:barriered_epoch=1
config:presample_epoch=2
config:omp_thread_num=13
config:unsupervised=True
config:amp=True
config:rolling=0
config:fanout=[25, 10]
config:lr=0.003
config:dropout=0.5
config:single_gpu=False
config:max_num_step=1000
config:validate_configs=False
config:report_acc=0
config:dataset_path=/nvme/graph-learning-copy/samgraph/mag240m-homo
config:torch_thread_num=13
config:train_workers=['cuda:0', 'cuda:1', 'cuda:2']
config:sample_workers=['cuda:3']
config:num_fanout=2
config:num_layer=2
config:_run_mode=RunMode.FGNN
config:_log_level=warn
config:_profile_level=3
config:_empty_feat=25
config:_arch=5
config:_sample_type=5
config:_cache_policy=13
test_result:init:input_scale_factor=1.11764
0 :  {link #0 : 1}, {link #1 : 2},
1 :  {link #0 : 2}, {link #1 : 0},
2 :  {link #0 : 0}, {link #1 : 1},
0 :  {link #0 : 1}, {link #1 : 2},
1 :  {link #0 : 2}, {link #1 : 0},
2 :  {link #0 : 0}, {link #1 : 1},
0 :  {link #0 : 1}, {link #1 : 2},
1 :  {link #0 : 2}, {link #1 : 0},
2 :  {link #0 : 0}, {link #1 : 1},
Set parameter WLSAccessID
Set parameter WLSSecret
Set parameter LicenseID
Set parameter TimeLimit to value 200
Set parameter MIPGap to value 0.05
Set parameter GomoryPasses to value 0
Set parameter Aggregate to value 0
Set parameter LogFile to value "cppsolver.log"
Set parameter Threads to value 26
Academic license - for non-commercial use only - registered to xiaoniu.sxn@sjtu.edu.cn
Gurobi Optimizer version 9.5.1 build v9.5.1rc2 (linux64)
Thread count: 40 physical cores, 80 logical processors, using up to 26 threads
Academic license - for non-commercial use only - registered to xiaoniu.sxn@sjtu.edu.cn
Optimize a model with 21309 rows, 10144 columns and 63897 nonzeros
Model fingerprint: 0xa73bf0d2
Variable types: 4 continuous, 10140 integer (10140 binary)
Coefficient statistics:
  Matrix range     [1e-03, 3e+02]
  Objective range  [1e+00, 1e+00]
  Bounds range     [1e+00, 1e+00]
  RHS range        [1e+00, 2e+02]
Found heuristic solution: objective 11311.715666
Presolve removed 12170 rows and 0 columns
Presolve time: 0.09s
Presolved: 9139 rows, 10144 columns, 37531 nonzeros
Found heuristic solution: objective 11311.715650
Variable types: 4 continuous, 10140 integer (10140 binary)

Root relaxation: objective 5.261730e+03, 8262 iterations, 0.14 seconds (0.11 work units)

    Nodes    |    Current Node    |     Objective Bounds      |     Work
 Expl Unexpl |  Obj  Depth IntInf | Incumbent    BestBd   Gap | It/Node Time

     0     0 5261.73004    0   16 11311.7156 5261.73004  53.5%     -    0s
H    0     0                    5262.0799181 5261.73004  0.01%     -    0s

Explored 1 nodes (10445 simplex iterations) in 0.38 seconds (0.28 work units)
Thread count was 26 (of 80 available processors)

Solution count 3: 5262.08 11311.7 11311.7 

Optimal solution found (tolerance 5.00e-02)
Best objective 5.262079918134e+03, best bound 5.261730037453e+03, gap 0.0066%
coll_cache:optimal_local_rate=0.18694,0.22506,0.16644,
coll_cache:optimal_remote_rate=0.391501,0.35338,0.412,
coll_cache:optimal_cpu_rate=0.421559,0.421559,0.421559,
z=5262.08
test_result:init:feat_nbytes=375030526464
test_result:init:cache_nbytes=7535811072
test_result:init:feat_nbytes=375030526464
test_result:init:cache_nbytes=7537929216
test_result:init:feat_nbytes=375030526464
test_result:init:cache_nbytes=7538098176
[Train  Worker 1/3] Started with PID 1008(Tesla V100-SXM2-16GB)
[Train  Worker 1] run train for 4 epochs with 1002 steps
[Train  Worker 2/3] Started with PID 1011(Tesla V100-SXM2-16GB)
[Train  Worker 2] run train for 4 epochs with 1002 steps
[CUDA] cuda0: usage: 14.25 GB
[SAM] cuda0 data alloc        : 0.00 Bytes
[SAM] cuda0 workspace         : 1.58 GB
[SAM] cuda0 workspace reserve : 804.36 MB
[SAM] cuda0 total             : 1.58 GB
[Train  Worker 0/3] Started with PID 1006(Tesla V100-SXM2-16GB)
[Train  Worker 0] run train for 4 epochs with 1002 steps
Epoch 00000 | Epoch Time 15.5257 | Total Train Time(Profiler) 6.1583 | Copy Time 9.3295
[CUDA] cuda0: usage: 14.25 GB
[SAM] cuda0 data alloc        : 0.00 Bytes
[SAM] cuda0 workspace         : 1.58 GB
[SAM] cuda0 workspace reserve : 804.88 MB
[SAM] cuda0 total             : 1.58 GB
Epoch 00001 | Epoch Time 13.0532 | Total Train Time(Profiler) 3.7106 | Copy Time 9.3155
[CUDA] cuda0: usage: 14.25 GB
[SAM] cuda0 data alloc        : 0.00 Bytes
[SAM] cuda0 workspace         : 1.58 GB
[SAM] cuda0 workspace reserve : 804.64 MB
[SAM] cuda0 total             : 1.58 GB
Epoch 00002 | Epoch Time 13.0820 | Total Train Time(Profiler) 3.7457 | Copy Time 9.3091
[CUDA] cuda0: usage: 14.25 GB
[SAM] cuda0 data alloc        : 0.00 Bytes
[SAM] cuda0 workspace         : 1.58 GB
[SAM] cuda0 workspace reserve : 804.36 MB
[SAM] cuda0 total             : 1.58 GB
Epoch 00003 | Epoch Time 13.0665 | Total Train Time(Profiler) 3.7338 | Copy Time 9.3052
[Train  Worker 2] Avg Epoch Time 13.0673 | Train Total Time(Profiler) 3.7307 | Copy Time 9.3077
[Train  Worker 0] Avg Epoch Time 13.0673 | Train Total Time(Profiler) 3.7301 | Copy Time 9.3100
[Train  Worker 1] Avg Epoch Time 13.0672 | Train Total Time(Profiler) 3.7323 | Copy Time 9.3057
    [Step(average) Profiler Level 1 E3 S1001]
        L1  sample           0.001906 | send           0.000508
        L1  recv             0.000000 | copy           0.000000 | convert time 0.000000 | train  0.000000
        L1  feature nbytes 0.00 Bytes | label nbytes 0.00 Bytes
        L1  id nbytes      0.00 Bytes | graph nbytes 0.00 Bytes
        L1  miss nbytes    0.00 Bytes | remote nbytes 0.00 Bytes
        L1  num nodes          484180 | num samples      550512
    [Step(average) Profiler Level 2 E3 S1001]
        L2  shuffle     0.000043 | core sample  0.000565 | id remap        0.001112
        L2  graph copy  0.000000 | id copy      0.000000 | cache feat copy 0.000000
        L2  last layer sample time 0.000249 | size 24934.181637
    [Step(average) Profiler Level 3 E3 S1001]
        L3  khop sample coo  0.000333 | khop sort coo      0.000000 | khop count edge     0.000030 | khop compact edge 0.000151
        L3  walk sample coo  0.000000 | walk topk total    0.000000 | walk topk step1     0.000000 | walk topk step2   0.000000
        L3  walk topk step3  0.000000 | walk topk step4    0.000000 | walk topk step5     0.000000
        L3  walk topk step6  0.000000 | walk topk step7    0.000000
        L3  remap unique     0.000177 | remap populate     0.000955 | remap mapnode       0.000000 | remap mapedge     0.000170
        L3  cache get_index  0.000000 | cache copy_index   0.000000 | cache extract_miss  0.000000
        L3  cache copy_miss  0.000000 | cache combine_miss 0.000000 | cache combine cache 0.000000 | cache combine remote 0.000000
        L3  label extract  0.000000
    [Init Profiler Level 1]
        L1  init     6.7019 | sampler init    39.3712 | trainer init 0.0000
    [Init Profiler Level 2]
        L2  load ds        10.1613 | init queue          23.9806
        L2  presample      10.1601 | build interal ds     1.7684
        L2  build cache     0.0000
    [Init Profiler Level 3]
        L3  load dataset: mmap     6.6991 | copy         3.4622
        L3  dist queue: alloc      0.0007 | pin         23.9800 | push     0.0000
        L3  presample: init        0.6481
        L3  presample: sample      3.9149 | copy         0.3201
        L3  presample: count       3.7782 | sort         0.6636
        L3  presample: reset       0.0018 | get rank     0.0923
        L3  internal: cuda ctx     1.5140 | cuda stream     0.2503
[Sample Worker 0/1] Started with PID 1004(Tesla V100-SXM2-16GB)
[Sample Worker 0] run sample for 4 epochs with 1002 steps
[Sample Worker 0] Avg Sample Total Time 2.4289 | Sampler Total Time(Profiler) 2.4191
test_result:sample_time=1.9101
test_result:get_cache_miss_index_time=0.0000
test_result:enqueue_samples_time=0.5090
test_result:epoch_time:sample_total=2.4289
[CUDA] cuda0: usage: 14.25 GB
[SAM] cuda0 data alloc        : 0.00 Bytes
[SAM] cuda0 workspace         : 1.58 GB
[SAM] cuda0 workspace reserve : 804.36 MB
[SAM] cuda0 total             : 1.58 GB
    [Step(average) Profiler Level 1 E3 S1001]
        L1  sample           0.000000 | send           0.000000
        L1  recv             0.000619 | copy           0.027868 | convert time 0.000442 | train  0.010729
        L1  feature nbytes  709.25 MB | label nbytes    7.81 KB
        L1  id nbytes      0.00 Bytes | graph nbytes 0.00 Bytes
        L1  miss nbytes     311.58 MB | remote nbytes  265.12 MB
        L1  num nodes               0 | num samples           0
    [Step(average) Profiler Level 2 E3 S1001]
        L2  shuffle     0.000000 | core sample  0.000000 | id remap        0.000000
        L2  graph copy  0.000003 | id copy      0.000000 | cache feat copy 0.027246
        L2  last layer sample time 0.000000 | size 0.000000
    [Step(average) Profiler Level 3 E3 S1001]
        L3  khop sample coo  0.000000 | khop sort coo      0.000000 | khop count edge     0.000000 | khop compact edge 0.000000
        L3  walk sample coo  0.000000 | walk topk total    0.000000 | walk topk step1     0.000000 | walk topk step2   0.000000
        L3  walk topk step3  0.000000 | walk topk step4    0.000000 | walk topk step5     0.000000
        L3  walk topk step6  0.000000 | walk topk step7    0.000000
        L3  remap unique     0.000000 | remap populate     0.000000 | remap mapnode       0.000000 | remap mapedge     0.000000
        L3  cache get_index  0.000364 | cache copy_index   0.000000 | cache extract_miss  0.000000
        L3  cache copy_miss  0.000000 | cache combine_miss 0.026532 | cache combine cache 0.000509 | cache combine remote 0.003703
        L3  label extract  0.000028
    [Step(max) Profiler Level 1 E3 S1001]
        L1  sample           0.000000 | send           0.000000
        L1  recv             0.000000 | copy           0.000000 | convert time 0.000000 | train  0.000000
        L1  feature nbytes 0.00 Bytes | label nbytes 0.00 Bytes
        L1  id nbytes      0.00 Bytes | graph nbytes    4.35 MB
        L1  miss nbytes    0.00 Bytes | remote nbytes 0.00 Bytes
        L1  num nodes               0 | num samples           0
    [Step(max) Profiler Level 2 E3 S1001]
        L2  shuffle     0.000000 | core sample  0.000000 | id remap        0.000000
        L2  graph copy  0.000000 | id copy      0.000000 | cache feat copy 0.000000
        L2  last layer sample time 0.000000 | size 0.000000
    [Step(max) Profiler Level 3 E3 S1001]
        L3  khop sample coo  0.000000 | khop sort coo      0.000000 | khop count edge     0.000000 | khop compact edge 0.000000
        L3  walk sample coo  0.000000 | walk topk total    0.000000 | walk topk step1     0.000000 | walk topk step2   0.000000
        L3  walk topk step3  0.000000 | walk topk step4    0.000000 | walk topk step5     0.000000
        L3  walk topk step6  0.000000 | walk topk step7    0.000000
        L3  remap unique     0.000000 | remap populate     0.000000 | remap mapnode       0.000000 | remap mapedge     0.000000
        L3  cache get_index  0.000000 | cache copy_index   0.000000 | cache extract_miss  0.000000
        L3  cache copy_miss  0.000000 | cache combine_miss 0.000000 | cache combine cache 0.000000 | cache combine remote 0.000000
        L3  label extract  0.000000
    [Step(min) Profiler Level 1 E3 S1001]
        L1  sample           0.000000 | send           0.000000
        L1  recv             0.000000 | copy           0.000000 | convert time 0.000000 | train  0.000000
        L1  feature nbytes 0.00 Bytes | label nbytes 0.00 Bytes
        L1  id nbytes      0.00 Bytes | graph nbytes    4.08 MB
        L1  miss nbytes    0.00 Bytes | remote nbytes 0.00 Bytes
        L1  num nodes               0 | num samples           0
    [Step(min) Profiler Level 2 E3 S1001]
        L2  shuffle     0.000000 | core sample  0.000000 | id remap        0.000000
        L2  graph copy  0.000000 | id copy      0.000000 | cache feat copy 0.000000
        L2  last layer sample time 0.000000 | size 0.000000
    [Step(min) Profiler Level 3 E3 S1001]
        L3  khop sample coo  0.000000 | khop sort coo      0.000000 | khop count edge     0.000000 | khop compact edge 0.000000
        L3  walk sample coo  0.000000 | walk topk total    0.000000 | walk topk step1     0.000000 | walk topk step2   0.000000
        L3  walk topk step3  0.000000 | walk topk step4    0.000000 | walk topk step5     0.000000
        L3  walk topk step6  0.000000 | walk topk step7    0.000000
        L3  remap unique     0.000000 | remap populate     0.000000 | remap mapnode       0.000000 | remap mapedge     0.000000
        L3  cache get_index  0.000000 | cache copy_index   0.000000 | cache extract_miss  0.000000
        L3  cache copy_miss  0.000000 | cache combine_miss 0.000000 | cache combine cache 0.000000 | cache combine remote 0.000000
        L3  label extract  0.000000
    [Init Profiler Level 1]
        L1  init     6.7019 | sampler init     0.0000 | trainer init 108.9505
    [Init Profiler Level 2]
        L2  load ds         6.6991 | init queue          23.8725
        L2  presample       0.0000 | build interal ds     1.5064
        L2  build cache    83.5680
    [Init Profiler Level 3]
        L3  load dataset: mmap     6.6991 | copy         0.0000
        L3  dist queue: alloc      0.0007 | pin         23.8718 | push     0.0000
        L3  presample: init        0.0000
        L3  presample: sample      0.0000 | copy         0.0000
        L3  presample: count       0.0000 | sort         0.0000
        L3  presample: reset       0.0000 | get rank     0.0000
        L3  internal: cuda ctx     1.5063 | cuda stream     0.0001
|===========================================================================|
|                  PyTorch CUDA memory summary, device ID 0                 |
|---------------------------------------------------------------------------|
|            CUDA OOMs: 0            |        cudaMalloc retries: 0         |
|===========================================================================|
|        Metric         | Cur Usage  | Peak Usage | Tot Alloc  | Tot Freed  |
|---------------------------------------------------------------------------|
| Allocated memory      |   22722 KB |  335547 KB |    1204 GB |    1204 GB |
|       from large pool |   14011 KB |  332772 KB |    1184 GB |    1184 GB |
|       from small pool |    8711 KB |   11032 KB |      20 GB |      20 GB |
|---------------------------------------------------------------------------|
| Active memory         |   22723 KB |  335547 KB |    1204 GB |    1204 GB |
|       from large pool |   14011 KB |  332772 KB |    1184 GB |    1184 GB |
|       from small pool |    8712 KB |   11032 KB |      20 GB |      20 GB |
|---------------------------------------------------------------------------|
| GPU reserved memory   |  421888 KB |  421888 KB |  421888 KB |       0 B  |
|       from large pool |  407552 KB |  407552 KB |  407552 KB |       0 B  |
|       from small pool |   14336 KB |   14336 KB |   14336 KB |       0 B  |
|---------------------------------------------------------------------------|
| Non-releasable memory |   34621 KB |  330165 KB |    1048 GB |    1048 GB |
|       from large pool |   33093 KB |  327631 KB |    1026 GB |    1026 GB |
|       from small pool |    1528 KB |    4522 KB |      22 GB |      22 GB |
|---------------------------------------------------------------------------|
| Allocations           |      43    |      62    |  192421    |  192378    |
|       from large pool |       7    |      16    |   68139    |   68132    |
|       from small pool |      36    |      47    |  124282    |  124246    |
|---------------------------------------------------------------------------|
| Active allocs         |      44    |      62    |  192421    |  192377    |
|       from large pool |       7    |      16    |   68139    |   68132    |
|       from small pool |      37    |      47    |  124282    |  124245    |
|---------------------------------------------------------------------------|
| GPU reserved segments |      14    |      14    |      14    |       0    |
|       from large pool |       7    |       7    |       7    |       0    |
|       from small pool |       7    |       7    |       7    |       0    |
|---------------------------------------------------------------------------|
| Non-releasable allocs |      17    |      26    |   82512    |   82495    |
|       from large pool |       3    |      11    |   43238    |   43235    |
|       from small pool |      14    |      20    |   39274    |   39260    |
|---------------------------------------------------------------------------|
| Oversize allocations  |       0    |       0    |       0    |       0    |
|---------------------------------------------------------------------------|
| Oversize GPU segments |       0    |       0    |       0    |       0    |
|===========================================================================|

test_result:epoch_time:copy_time=9.3100
test_result:convert_time=0.1459
test_result:train_time=3.5841
test_result:epoch_time:train_total=3.7301
test_result:cache_percentage=0.0200
test_result:cache_hit_rate=1.0000
test_result:run_time=64.4676
